p wcnf 114 171 172 
1 -44 9 0 
1 14 87 0 
1 -27 -67 0 
1 -45 24 0 
1 -31 28 0 
1 -109 31 0 
1 88 4 0 
1 66 -30 0 
1 -35 -11 0 
1 81 5 0 
1 61 16 0 
1 41 46 0 
1 41 16 0 
1 50 -91 0 
1 7 14 0 
1 -34 -16 0 
1 65 -109 0 
1 -62 -44 0 
1 -94 68 0 
1 34 -26 0 
1 110 -114 0 
1 -30 -48 0 
1 94 -59 0 
1 60 11 0 
1 -85 56 0 
1 91 -10 0 
1 -82 23 0 
1 -55 94 0 
1 69 65 0 
1 98 -60 0 
1 82 61 0 
1 52 82 0 
1 -56 -2 0 
1 44 17 0 
1 -91 100 0 
1 113 31 0 
1 71 17 0 
1 84 11 0 
1 -11 -83 0 
1 -55 28 0 
1 66 46 0 
1 111 -64 0 
1 105 -44 0 
1 77 38 0 
1 -37 3 0 
1 -55 -70 0 
1 12 -68 0 
1 -72 74 0 
1 -38 -16 0 
1 44 -50 0 
1 30 -43 0 
1 101 -16 0 
1 -106 -90 0 
1 46 -18 0 
1 -76 103 0 
1 79 26 0 
1 -46 -65 0 
1 83 -33 0 
1 -46 -24 0 
1 -13 -48 0 
1 90 16 0 
1 21 -25 0 
1 -8 22 0 
1 -85 -92 0 
1 -42 -28 0 
1 -46 -53 0 
1 -73 27 0 
1 -106 79 0 
1 -32 -10 0 
1 37 -5 0 
1 -71 3 0 
1 -111 73 0 
1 -86 61 0 
1 108 -64 0 
1 96 46 0 
1 48 2 0 
1 -105 67 0 
1 -35 93 0 
1 111 -7 0 
1 -25 -16 0 
1 70 -35 0 
1 37 94 0 
1 101 70 0 
1 -12 87 0 
1 87 -97 0 
1 -8 1 0 
1 15 -99 0 
1 -45 28 0 
1 -24 27 0 
1 45 52 0 
1 -70 52 0 
1 -95 -89 0 
1 4 36 0 
1 33 -95 0 
1 114 -101 0 
1 -77 75 0 
1 10 -41 0 
1 -7 52 0 
1 70 -18 0 
1 -52 60 0 
1 -5 112 0 
1 109 -113 0 
1 8 -113 0 
1 -21 83 0 
1 -92 -78 0 
1 -61 4 0 
1 48 114 0 
1 -80 -10 0 
1 -100 90 0 
1 -34 28 0 
1 88 -2 0 
1 29 67 0 
1 -79 77 0 
1 -72 -22 0 
1 -79 59 0 
1 -41 -73 0 
1 36 30 0 
1 102 -83 0 
1 63 -113 0 
1 112 29 0 
1 89 31 0 
1 9 -47 0 
1 -94 -54 0 
1 24 39 0 
1 -10 -88 0 
1 93 -105 0 
1 110 91 0 
1 -76 92 0 
1 31 -1 0 
1 112 -87 0 
1 -24 -90 0 
1 25 -78 0 
1 98 -104 0 
1 -39 50 0 
1 -74 -20 0 
1 42 -88 0 
1 -19 107 0 
1 -96 -74 0 
1 59 -113 0 
1 92 -109 0 
1 -99 104 0 
1 49 -51 0 
1 -19 -16 0 
1 -36 -107 0 
1 -59 99 0 
1 72 83 0 
1 78 35 0 
1 -107 95 0 
1 17 51 0 
1 72 -103 0 
1 -20 57 0 
1 -63 -6 0 
1 -55 -95 0 
1 -16 48 0 
1 -93 40 0 
1 39 62 0 
1 -25 40 0 
1 -90 -87 0 
1 28 1 0 
1 79 78 0 
1 108 -26 0 
1 83 -66 0 
1 77 -28 0 
1 100 38 0 
1 -58 -83 0 
1 -80 -105 0 
1 33 -107 0 
1 109 -32 0 
1 -103 72 0 
1 58 -106 0 
1 105 -2 0 
